
  22   10
  10   10   10   10   10   10   10   10   10   10

   0   0   0   0   0   0   0   0   0   0   0   1 2 
   2  10   0   0   0   0   0   0   0   0   0   1 3 
   8   0   0   0   0  10   0   0   0   0   0   1 4 
   1   0   0   0   0   0   0   0  10   0   0   1 5 
   8   0   0   0  10   0   0   0   0   0   0   1 6 
  10   0   0  10   0   0   0   0   0   0   0   1 7 
   4   0   0  10   0   0   0   0   0   0   0   2 11 8 
  10  10   0   0   0   0   0   0   0   0   0   1 9 
   9   0   0   0   0  10   0   0   0   0   0   1 10 
   7   0   0   0   0   0  10   0   0   0   0   1 12 
   7   0   0   0   0   0   0   0  10   0   0   1 12 
   2   0   0   0   0   0   0   0  10   0   0   1 13 
   9   0   0   0   0   0   0   0   0   0  10   1 14 
   2   0  10   0   0   0   0   0   0   0   0   2 19 15 
   4   0   0   0  10   0   0   0   0   0   0   1 16 
   5  10   0   0   0   0   0   0   0   0   0   1 17 
   7   0   0   0   0   0   0   0  10   0   0   1 18 
   5   0   0   0   0   0  10   0   0   0   0   1 20 
   1   0   0   0   0   0  10   0   0   0   0   1 20 
   9   0   0   0   0  10   0   0   0   0   0   1 21 
   1  10   0   0   0   0   0   0   0   0   0   1 22
   0   0   0   0   0   0   0   0   0   0   0   0 
